15
0 58 87 92 12 8 136 105 88 936 17 105 15 22 21 
58 0 43 26 118 518 105 12 11 19 159 7 146 23 38 
87 41 0 23 101 30 86 15 139 92 171 26 15 7 24 
80 26 23 0 109 37 38 149 13 10 157 32 14 22 23 
71 118 10 109 0 87 52 99 323 11 25 107 24 32 33
85 51 30 37 8 0 66 15 137 73 181 32 170 254 26 
48 505 86 93 52 668 0 13 127 773 237 92 22 3 315 
10 129 183 34 99 154 13 0 46 20 24 171 23 31 70 
21 112 139 15 83 19 127 468 0 18 29 157 21 29 286 
14 11 92 100 11 73 37 20 18 0 45 84 58 30 89 
17 68 71 15 25 18 12 24 9 21 0 15 9 6 184 
105 57 26 32 107 37 9 17 15 84 154 0 14 78 32 
15 119 99 77 24 47 226 65 606 21 93 43 0 71 10 
22 7 37 62 53 25 88 16 91 8 17 22 16 0 31 
216 23 2 23 33 26 3 10 86 7 14 49 105 310 0 
